%
% Data for picking_teams.mzn 
% Generated by picking_teams_generate.pl 100 100
% (Fri Jun 22 10:26:09 2012)
% 
%
%
n = 100;
s = [53, 48, 8, 5, 83, 20, 51, 96, 93, 50, 48, 60, 63, 87, 48, 3, 74, 44, 98, 59, 64, 8, 36, 43, 96, 50, 78, 30, 35, 19, 6, 42, 21, 67, 57, 90, 58, 4, 96, 28, 46, 3, 73, 34, 37, 96, 40, 64, 78, 11, 34, 33, 3, 54, 40, 51, 33, 39, 50, 52, 57, 98, 93, 19, 65, 51, 76, 42, 91, 88, 0, 68, 75, 2, 7, 99, 5, 67, 6, 74, 38, 58, 22, 54, 66, 25, 11, 96, 17, 36, 84, 0, 94, 60, 28, 75, 75, 92, 88, 29];

